cost: 667.46
Route 1:           0   33    9   22   32   50    1   21   48   23   18   15    0
Route 2:           0   42   46   43    7   19   11    3   27   26   49   10   13   28   44   20   25    0
Route 3:           0   35   37   16   47    6   29   40   39    8    2   31    4   12    0
Route 4:           0   41    5   36   45   14   30   24   34   38   17    0
